p cnf 42 552
1 2 3 4 5 6 7 8 9 10 11 12 13 14 0
15 16 17 18 19 20 21 22 23 24 25 26 27 28 0
29 30 31 32 33 34 35 36 37 38 39 40 41 42 0
-1 -4 0
-1 -18 0
-1 -32 0
-15 -4 0
-15 -18 0
-15 -32 0
-29 -4 0
-29 -18 0
-29 -32 0
-1 -6 0
-1 -20 0
-1 -34 0
-15 -6 0
-15 -20 0
-15 -34 0
-29 -6 0
-29 -20 0
-29 -34 0
-1 -9 0
-1 -23 0
-1 -37 0
-15 -9 0
-15 -23 0
-15 -37 0
-29 -9 0
-29 -23 0
-29 -37 0
-1 -12 0
-1 -26 0
-1 -40 0
-15 -12 0
-15 -26 0
-15 -40 0
-29 -12 0
-29 -26 0
-29 -40 0
-1 -13 0
-1 -27 0
-1 -41 0
-15 -13 0
-15 -27 0
-15 -41 0
-29 -13 0
-29 -27 0
-29 -41 0
-2 -7 0
-2 -21 0
-2 -35 0
-16 -7 0
-16 -21 0
-16 -35 0
-30 -7 0
-30 -21 0
-30 -35 0
-2 -10 0
-2 -24 0
-2 -38 0
-16 -10 0
-16 -24 0
-16 -38 0
-30 -10 0
-30 -24 0
-30 -38 0
-2 -12 0
-2 -26 0
-2 -40 0
-16 -12 0
-16 -26 0
-16 -40 0
-30 -12 0
-30 -26 0
-30 -40 0
-2 -13 0
-2 -27 0
-2 -41 0
-16 -13 0
-16 -27 0
-16 -41 0
-30 -13 0
-30 -27 0
-30 -41 0
-3 -6 0
-3 -20 0
-3 -34 0
-17 -6 0
-17 -20 0
-17 -34 0
-31 -6 0
-31 -20 0
-31 -34 0
-3 -7 0
-3 -21 0
-3 -35 0
-17 -7 0
-17 -21 0
-17 -35 0
-31 -7 0
-31 -21 0
-31 -35 0
-3 -8 0
-3 -22 0
-3 -36 0
-17 -8 0
-17 -22 0
-17 -36 0
-31 -8 0
-31 -22 0
-31 -36 0
-3 -12 0
-3 -26 0
-3 -40 0
-17 -12 0
-17 -26 0
-17 -40 0
-31 -12 0
-31 -26 0
-31 -40 0
-3 -13 0
-3 -27 0
-3 -41 0
-17 -13 0
-17 -27 0
-17 -41 0
-31 -13 0
-31 -27 0
-31 -41 0
-4 -5 0
-4 -19 0
-4 -33 0
-18 -5 0
-18 -19 0
-18 -33 0
-32 -5 0
-32 -19 0
-32 -33 0
-4 -11 0
-4 -25 0
-4 -39 0
-18 -11 0
-18 -25 0
-18 -39 0
-32 -11 0
-32 -25 0
-32 -39 0
-4 -14 0
-4 -28 0
-4 -42 0
-18 -14 0
-18 -28 0
-18 -42 0
-32 -14 0
-32 -28 0
-32 -42 0
-5 -7 0
-5 -21 0
-5 -35 0
-19 -7 0
-19 -21 0
-19 -35 0
-33 -7 0
-33 -21 0
-33 -35 0
-5 -10 0
-5 -24 0
-5 -38 0
-19 -10 0
-19 -24 0
-19 -38 0
-33 -10 0
-33 -24 0
-33 -38 0
-5 -13 0
-5 -27 0
-5 -41 0
-19 -13 0
-19 -27 0
-19 -41 0
-33 -13 0
-33 -27 0
-33 -41 0
-6 -7 0
-6 -21 0
-6 -35 0
-20 -7 0
-20 -21 0
-20 -35 0
-34 -7 0
-34 -21 0
-34 -35 0
-6 -8 0
-6 -22 0
-6 -36 0
-20 -8 0
-20 -22 0
-20 -36 0
-34 -8 0
-34 -22 0
-34 -36 0
-6 -9 0
-6 -23 0
-6 -37 0
-20 -9 0
-20 -23 0
-20 -37 0
-34 -9 0
-34 -23 0
-34 -37 0
-6 -10 0
-6 -24 0
-6 -38 0
-20 -10 0
-20 -24 0
-20 -38 0
-34 -10 0
-34 -24 0
-34 -38 0
-6 -12 0
-6 -26 0
-6 -40 0
-20 -12 0
-20 -26 0
-20 -40 0
-34 -12 0
-34 -26 0
-34 -40 0
-7 -8 0
-7 -22 0
-7 -36 0
-21 -8 0
-21 -22 0
-21 -36 0
-35 -8 0
-35 -22 0
-35 -36 0
-7 -9 0
-7 -23 0
-7 -37 0
-21 -9 0
-21 -23 0
-21 -37 0
-35 -9 0
-35 -23 0
-35 -37 0
-7 -10 0
-7 -24 0
-7 -38 0
-21 -10 0
-21 -24 0
-21 -38 0
-35 -10 0
-35 -24 0
-35 -38 0
-7 -11 0
-7 -25 0
-7 -39 0
-21 -11 0
-21 -25 0
-21 -39 0
-35 -11 0
-35 -25 0
-35 -39 0
-7 -13 0
-7 -27 0
-7 -41 0
-21 -13 0
-21 -27 0
-21 -41 0
-35 -13 0
-35 -27 0
-35 -41 0
-8 -10 0
-8 -24 0
-8 -38 0
-22 -10 0
-22 -24 0
-22 -38 0
-36 -10 0
-36 -24 0
-36 -38 0
-8 -13 0
-8 -27 0
-8 -41 0
-22 -13 0
-22 -27 0
-22 -41 0
-36 -13 0
-36 -27 0
-36 -41 0
-8 -14 0
-8 -28 0
-8 -42 0
-22 -14 0
-22 -28 0
-22 -42 0
-36 -14 0
-36 -28 0
-36 -42 0
-9 -11 0
-9 -25 0
-9 -39 0
-23 -11 0
-23 -25 0
-23 -39 0
-37 -11 0
-37 -25 0
-37 -39 0
-9 -13 0
-9 -27 0
-9 -41 0
-23 -13 0
-23 -27 0
-23 -41 0
-37 -13 0
-37 -27 0
-37 -41 0
-10 -11 0
-10 -25 0
-10 -39 0
-24 -11 0
-24 -25 0
-24 -39 0
-38 -11 0
-38 -25 0
-38 -39 0
-11 -12 0
-11 -26 0
-11 -40 0
-25 -12 0
-25 -26 0
-25 -40 0
-39 -12 0
-39 -26 0
-39 -40 0
-11 -14 0
-11 -28 0
-11 -42 0
-25 -14 0
-25 -28 0
-25 -42 0
-39 -14 0
-39 -28 0
-39 -42 0
-13 -14 0
-13 -28 0
-13 -42 0
-27 -14 0
-27 -28 0
-27 -42 0
-41 -14 0
-41 -28 0
-41 -42 0
-1 -2 0
-1 -3 0
-1 -5 0
-1 -7 0
-1 -8 0
-1 -10 0
-1 -11 0
-1 -14 0
-2 -3 0
-2 -4 0
-2 -5 0
-2 -6 0
-2 -8 0
-2 -9 0
-2 -11 0
-2 -14 0
-3 -4 0
-3 -5 0
-3 -9 0
-3 -10 0
-3 -11 0
-3 -14 0
-4 -6 0
-4 -7 0
-4 -8 0
-4 -9 0
-4 -10 0
-4 -12 0
-4 -13 0
-5 -6 0
-5 -8 0
-5 -9 0
-5 -11 0
-5 -12 0
-5 -14 0
-6 -11 0
-6 -13 0
-6 -14 0
-7 -12 0
-7 -14 0
-8 -9 0
-8 -11 0
-8 -12 0
-9 -10 0
-9 -12 0
-9 -14 0
-10 -12 0
-10 -13 0
-10 -14 0
-11 -13 0
-12 -13 0
-12 -14 0
-15 -16 0
-15 -17 0
-15 -19 0
-15 -21 0
-15 -22 0
-15 -24 0
-15 -25 0
-15 -28 0
-16 -17 0
-16 -18 0
-16 -19 0
-16 -20 0
-16 -22 0
-16 -23 0
-16 -25 0
-16 -28 0
-17 -18 0
-17 -19 0
-17 -23 0
-17 -24 0
-17 -25 0
-17 -28 0
-18 -20 0
-18 -21 0
-18 -22 0
-18 -23 0
-18 -24 0
-18 -26 0
-18 -27 0
-19 -20 0
-19 -22 0
-19 -23 0
-19 -25 0
-19 -26 0
-19 -28 0
-20 -25 0
-20 -27 0
-20 -28 0
-21 -26 0
-21 -28 0
-22 -23 0
-22 -25 0
-22 -26 0
-23 -24 0
-23 -26 0
-23 -28 0
-24 -26 0
-24 -27 0
-24 -28 0
-25 -27 0
-26 -27 0
-26 -28 0
-29 -30 0
-29 -31 0
-29 -33 0
-29 -35 0
-29 -36 0
-29 -38 0
-29 -39 0
-29 -42 0
-30 -31 0
-30 -32 0
-30 -33 0
-30 -34 0
-30 -36 0
-30 -37 0
-30 -39 0
-30 -42 0
-31 -32 0
-31 -33 0
-31 -37 0
-31 -38 0
-31 -39 0
-31 -42 0
-32 -34 0
-32 -35 0
-32 -36 0
-32 -37 0
-32 -38 0
-32 -40 0
-32 -41 0
-33 -34 0
-33 -36 0
-33 -37 0
-33 -39 0
-33 -40 0
-33 -42 0
-34 -39 0
-34 -41 0
-34 -42 0
-35 -40 0
-35 -42 0
-36 -37 0
-36 -39 0
-36 -40 0
-37 -38 0
-37 -40 0
-37 -42 0
-38 -40 0
-38 -41 0
-38 -42 0
-39 -41 0
-40 -41 0
-40 -42 0
-1 -15 0
-1 -29 0
-15 -29 0
-2 -16 0
-2 -30 0
-16 -30 0
-3 -17 0
-3 -31 0
-17 -31 0
-4 -18 0
-4 -32 0
-18 -32 0
-5 -19 0
-5 -33 0
-19 -33 0
-6 -20 0
-6 -34 0
-20 -34 0
-7 -21 0
-7 -35 0
-21 -35 0
-8 -22 0
-8 -36 0
-22 -36 0
-9 -23 0
-9 -37 0
-23 -37 0
-10 -24 0
-10 -38 0
-24 -38 0
-11 -25 0
-11 -39 0
-25 -39 0
-12 -26 0
-12 -40 0
-26 -40 0
-13 -27 0
-13 -41 0
-27 -41 0
-14 -28 0
-14 -42 0
-28 -42 0
